unsat
((set-logic NIA)
(declare-fun q!3 () Int)
(declare-fun b!2 () Int)
(declare-fun s!0 () Int)
(declare-fun p!5 () Int)
(declare-fun a!4 () Int)
(declare-fun r!1 () Int)
(proof
(let ((?x891 (* s00 a00 q!3)))
 (let ((?x378 (* q00 r00 b!2)))
 (let ((?x159 (* p00 b00 s!0)))
 (let ((?x743 (+ ?x159 (* (- 1) (* r00 b00 q!3)) (* (- 1) (* p00 s00 b!2)) (* (- 1) (* q00 a00 s!0)) ?x378 ?x891)))
 (let (($x857 (>= ?x743 0)))
 (let (($x209 (= ?x743 0)))
 (let ((?x380 (* r00 b00 p!5)))
 (let ((?x626 (* (- 1) ?x380)))
 (let ((?x368 (* q00 r00 a!4)))
 (let ((?x339 (* p00 b00 r!1)))
 (let ((?x253 (* s00 a00 p!5)))
 (let ((?x154 (* p00 s00 a!4)))
 (let ((?x700 (* (- 1) ?x154)))
 (let ((?x124 (* q00 a00 r!1)))
 (let ((?x856 (* (- 1) ?x124)))
 (let ((?x698 (* a!4 a!4 a!4 q!3 b!2 b!2 b!2 r!1 p!5)))
 (let ((?x842 (* (- 1) (* q!3 s!0 s!0 r!1 p!5))))
 (let ((?x153 (* a!4 q!3 b!2 b!2 s!0 s!0 p!5 p!5 p!5)))
 (let ((?x550 (+ ?x153 ?x842 (* 3 (* a!4 a!4 a!4 a!4 a!4 q!3 b!2 r!1 p!5)) (* 2 (* a!4 b!2 b!2 s!0 r!1 p!5 p!5 p!5 p!5)) (* (- 1) (* a!4 a!4 a!4 a!4 a!4 a!4 q!3 r!1 p!5)) (* (- 3) (* a!4 a!4 a!4 a!4 a!4 b!2 r!1 p!5 p!5)) (* (- 1) (* a!4 a!4 a!4 b!2 b!2 b!2 r!1 p!5 p!5)) (* (- 3) (* a!4 a!4 a!4 a!4 q!3 b!2 b!2 r!1 p!5)) (* r!1 r!1 r!1 p!5 p!5) (* (- 1) (* q!3 r!1 r!1 r!1 p!5)) (* (- 2) (* s!0 r!1 r!1 p!5 p!5)) (* s!0 s!0 r!1 p!5 p!5) (* (- 1) (* a!4 a!4 a!4 s!0 s!0 p!5 p!5 p!5 p!5)) (* (- 2) (* a!4 a!4 q!3 b!2 s!0 s!0 p!5 p!5 p!5)) (* (- 2) (* a!4 a!4 q!3 b!2 r!1 r!1 p!5 p!5 p!5)) ?x698 (* (- 1) (* a!4 b!2 b!2 r!1 r!1 p!5 p!5 p!5 p!5)) (* a!4 a!4 a!4 q!3 s!0 s!0 p!5 p!5 p!5) (* 3 (* a!4 a!4 a!4 a!4 b!2 b!2 r!1 p!5 p!5)) (* 2 (* a!4 a!4 a!4 s!0 r!1 p!5 p!5 p!5 p!5)) (* 2 (* q!3 s!0 r!1 r!1 p!5)) (* (- 2) (* a!4 q!3 b!2 b!2 s!0 r!1 p!5 p!5 p!5)) (* 2 (* a!4 a!4 b!2 s!0 s!0 p!5 p!5 p!5 p!5)) (* (- 1) (* a!4 a!4 a!4 r!1 r!1 p!5 p!5 p!5 p!5)) (* 2 (* a!4 a!4 b!2 r!1 r!1 p!5 p!5 p!5 p!5)) (* a!4 a!4 a!4 q!3 r!1 r!1 p!5 p!5 p!5) (* a!4 a!4 a!4 a!4 a!4 a!4 r!1 p!5 p!5) (* a!4 q!3 b!2 b!2 r!1 r!1 p!5 p!5 p!5) (* (- 4) (* a!4 a!4 b!2 s!0 r!1 p!5 p!5 p!5 p!5)) (* (- 2) (* a!4 a!4 a!4 q!3 s!0 r!1 p!5 p!5 p!5)) (* 4 (* a!4 a!4 q!3 b!2 s!0 r!1 p!5 p!5 p!5)) (* (- 1) (* a!4 b!2 b!2 s!0 s!0 p!5 p!5 p!5 p!5)))))
 (let ((?x569 (* ?x550 (+ ?x856 ?x700 ?x253 ?x339 ?x368 ?x626))))
 (let (($x469 (= ?x569 0)))
 (let ((?x304 (* q00 a00 s!0)))
 (let ((?x254 (* p00 s00 b!2)))
 (let ((?x170 (* r00 b00 q!3)))
 (let ((?x648 (+ ?x856 ?x700 (* (- 1) ?x159) ?x170 ?x253 ?x254 ?x304 ?x339 ?x368 (* (- 1) ?x378) ?x626 (* (- 1) ?x891))))
 (let ((?x1458 (* (- 1) (* q!3 q!3 s!0 s!0 s!0))))
 (let ((?x1451 (* (- 1) (* q!3 q!3 b!2 b!2 b!2 b!2 b!2 b!2 s!0))))
 (let ((?x1449 (* 3 (* a!4 q!3 q!3 b!2 b!2 b!2 b!2 b!2 s!0))))
 (let ((?x186 (* (- 3) (* a!4 a!4 q!3 q!3 b!2 b!2 b!2 b!2 s!0))))
 (let ((?x1403 (* a!4 a!4 a!4 q!3 q!3 b!2 b!2 b!2 s!0)))
 (let ((?x1390 (* (- 3) (* a!4 q!3 q!3 b!2 b!2 b!2 b!2 b!2 r!1))))
 (let ((?x1384 (* q!3 q!3 b!2 b!2 b!2 b!2 b!2 b!2 r!1)))
 (let ((?x1387 (* 3 (* a!4 a!4 q!3 q!3 b!2 b!2 b!2 b!2 r!1))))
 (let ((?x1382 (* (- 1) (* a!4 a!4 a!4 q!3 q!3 b!2 b!2 b!2 r!1))))
 (let ((?x1159 (* q!3 q!3 q!3 q!3 b!2 b!2 b!2 s!0 s!0)))
 (let ((?x1155 (* (- 1) (* a!4 q!3 q!3 q!3 q!3 b!2 b!2 s!0 s!0))))
 (let ((?x821 (+ ?x153 ?x842 ?x1155 (* 3 (* q!3 q!3 b!2 b!2 b!2 s!0 s!0 p!5 p!5)) (* q!3 b!2 b!2 b!2 b!2 b!2 b!2 s!0 p!5) (* q!3 q!3 s!0 s!0 r!1) ?x698 (* (- 3) (* a!4 a!4 q!3 b!2 b!2 b!2 b!2 r!1 p!5)) (* 3 (* a!4 q!3 b!2 b!2 b!2 b!2 b!2 r!1 p!5)) (* (- 1) (* q!3 b!2 b!2 b!2 b!2 b!2 b!2 r!1 p!5)) (* q!3 s!0 s!0 s!0 p!5) (* (- 3) (* a!4 q!3 q!3 b!2 b!2 s!0 s!0 p!5 p!5)) (* (- 1) (* a!4 a!4 a!4 q!3 b!2 b!2 b!2 s!0 p!5)) (* (- 3) (* a!4 q!3 b!2 b!2 b!2 b!2 b!2 s!0 p!5)) (* (- 1) (* q!3 b!2 b!2 b!2 s!0 s!0 p!5 p!5 p!5)) ?x1159 (* (- 3) (* q!3 q!3 q!3 b!2 b!2 b!2 s!0 s!0 p!5)) (* 3 (* a!4 q!3 q!3 q!3 b!2 b!2 s!0 s!0 p!5)) ?x1382 ?x1387 ?x1384 ?x1390 ?x1403 ?x186 ?x1449 (* 3 (* a!4 a!4 q!3 b!2 b!2 b!2 b!2 s!0 p!5)) ?x1451 ?x1458)))
 (let ((?x893 (* ?x821 ?x648)))
 (let (($x644 (= ?x893 0)))
 (let (($x894 (not $x644)))
 (let (($x561 (or $x894 (not $x469))))
 (let ((?x1282 (+ ?x124 ?x154 (* (- 1) ?x253) (* (- 1) ?x339) (* (- 1) ?x368) ?x380)))
 (let (($x171 (= ?x1282 0)))
 (let ((?x137 (* q00 a00)))
 (let ((?x383 (+ ?x137 (* (- 1) (* p00 b00)) (* (- 1) (* a!4 q!3)) (* b!2 p!5))))
 (let ((?x829 (* b!2 r!1)))
 (let ((?x133 (* s00 a00)))
 (let (($x1355 (= (+ ?x133 (* (- 1) (* r00 b00)) ?x829 (* (- 1) (* a!4 s!0))) 0)))
 (let ((?x134 (* q!3 r!1)))
 (let ((?x41 (* q00 r00)))
 (let ((?x590 (* (- 1) ?x41)))
 (let ((?x37 (* p00 s00)))
 (let (($x600 (and (= (+ ?x37 ?x590 ?x134 (* (- 1) (* s!0 p!5))) 0) $x1355 (= ?x383 0) $x171 $x209 $x561)))
 (let ((?x1086 (* r!1 q00 a00)))
 (let ((?x1504 (* (- 1) ?x1086)))
 (let ((?x1078 (* p!5 s00 a00)))
 (let ((?x1019 (* r!1 p00 b00)))
 (let ((?x1018 (* p!5 r00 b00)))
 (let ((?x1506 (* (- 1) ?x1018)))
 (let ((?x252 (* a!4 q00 r00)))
 (let ((?x251 (* a!4 p00 s00)))
 (let ((?x1483 (* (- 1) ?x251)))
 (let ((?x1453 (* (- 1) (* p!5 q!3 r!1 s!0 s!0))))
 (let ((?x517 (* p!5 a!4 a!4 a!4 q!3 b!2 b!2 b!2 r!1)))
 (let ((?x739 (* p!5 p!5 p!5 a!4 q!3 b!2 b!2 s!0 s!0)))
 (let ((?x1311 (+ (* (- 1) (* p!5 p!5 p!5 p!5 a!4 a!4 a!4 r!1 r!1)) (* 2 (* p!5 p!5 p!5 p!5 a!4 a!4 b!2 r!1 r!1)) (* (- 1) (* p!5 p!5 p!5 p!5 a!4 b!2 b!2 r!1 r!1)) (* p!5 p!5 p!5 a!4 a!4 a!4 q!3 r!1 r!1) (* (- 2) (* p!5 p!5 p!5 a!4 a!4 q!3 b!2 r!1 r!1)) ?x739 ?x517 ?x1453 (* 2 (* p!5 p!5 p!5 p!5 a!4 a!4 a!4 r!1 s!0)) (* p!5 p!5 p!5 a!4 q!3 b!2 b!2 r!1 r!1) (* (- 4) (* p!5 p!5 p!5 p!5 a!4 a!4 b!2 r!1 s!0)) (* 2 (* p!5 p!5 p!5 p!5 a!4 b!2 b!2 r!1 s!0)) (* (- 2) (* p!5 p!5 p!5 a!4 a!4 a!4 q!3 r!1 s!0)) (* 4 (* p!5 p!5 p!5 a!4 a!4 q!3 b!2 r!1 s!0)) (* (- 2) (* p!5 p!5 p!5 a!4 q!3 b!2 b!2 r!1 s!0)) (* (- 1) (* p!5 p!5 p!5 p!5 a!4 a!4 a!4 s!0 s!0)) (* 2 (* p!5 p!5 p!5 p!5 a!4 a!4 b!2 s!0 s!0)) (* (- 1) (* p!5 p!5 p!5 p!5 a!4 b!2 b!2 s!0 s!0)) (* p!5 p!5 p!5 a!4 a!4 a!4 q!3 s!0 s!0) (* (- 2) (* p!5 p!5 p!5 a!4 a!4 q!3 b!2 s!0 s!0)) (* p!5 p!5 a!4 a!4 a!4 a!4 a!4 a!4 r!1) (* (- 3) (* p!5 p!5 a!4 a!4 a!4 a!4 a!4 b!2 r!1)) (* 3 (* p!5 p!5 a!4 a!4 a!4 a!4 b!2 b!2 r!1)) (* (- 1) (* p!5 p!5 a!4 a!4 a!4 b!2 b!2 b!2 r!1)) (* (- 1) (* p!5 a!4 a!4 a!4 a!4 a!4 a!4 q!3 r!1)) (* 3 (* p!5 a!4 a!4 a!4 a!4 a!4 q!3 b!2 r!1)) (* (- 3) (* p!5 a!4 a!4 a!4 a!4 q!3 b!2 b!2 r!1)) (* p!5 p!5 r!1 r!1 r!1) (* (- 1) (* p!5 q!3 r!1 r!1 r!1)) (* (- 2) (* p!5 p!5 r!1 r!1 s!0)) (* 2 (* p!5 q!3 r!1 r!1 s!0)) (* p!5 p!5 r!1 s!0 s!0))))
 (let ((?x902 (* s!0 q00 a00)))
 (let ((?x1432 (* q!3 r00 b00)))
 (let ((?x1424 (* b!2 p00 s00)))
 (let ((?x188 (+ ?x1483 ?x252 (* (- 1) (* b!2 q00 r00)) ?x1424 ?x1506 ?x1019 ?x1078 ?x1504 (* (- 1) (* s!0 p00 b00)) ?x1432 (* (- 1) (* q!3 s00 a00)) ?x902)))
 (let ((?x1459 (+ ?x739 (* (- 1) (* p!5 p!5 p!5 q!3 b!2 b!2 b!2 s!0 s!0)) (* (- 3) (* p!5 p!5 a!4 q!3 q!3 b!2 b!2 s!0 s!0)) (* 3 (* p!5 p!5 q!3 q!3 b!2 b!2 b!2 s!0 s!0)) (* 3 (* p!5 a!4 q!3 q!3 q!3 b!2 b!2 s!0 s!0)) (* (- 3) (* p!5 q!3 q!3 q!3 b!2 b!2 b!2 s!0 s!0)) ?x1155 ?x1159 ?x517 (* (- 3) (* p!5 a!4 a!4 q!3 b!2 b!2 b!2 b!2 r!1)) (* 3 (* p!5 a!4 q!3 b!2 b!2 b!2 b!2 b!2 r!1)) (* (- 1) (* p!5 q!3 b!2 b!2 b!2 b!2 b!2 b!2 r!1)) ?x1382 ?x1387 ?x1390 ?x1384 (* (- 1) (* p!5 a!4 a!4 a!4 q!3 b!2 b!2 b!2 s!0)) (* 3 (* p!5 a!4 a!4 q!3 b!2 b!2 b!2 b!2 s!0)) (* (- 3) (* p!5 a!4 q!3 b!2 b!2 b!2 b!2 b!2 s!0)) (* p!5 q!3 b!2 b!2 b!2 b!2 b!2 b!2 s!0) ?x1403 ?x186 ?x1449 ?x1451 ?x1453 (* q!3 q!3 r!1 s!0 s!0) (* p!5 q!3 s!0 s!0 s!0) ?x1458)))
 (let (($x1306 (or (not (= (* ?x1459 ?x188) 0)) (not (= (* ?x1311 (+ ?x1483 ?x252 ?x1506 ?x1019 ?x1078 ?x1504)) 0)))))
 (let ((?x901 (* q!3 s00 a00)))
 (let ((?x1430 (* s!0 p00 b00)))
 (let ((?x354 (* b!2 q00 r00)))
 (let (($x735 (= (+ ?x354 (* (- 1) ?x1424) ?x1430 (* (- 1) ?x1432) ?x901 (* (- 1) ?x902)) 0)))
 (let (($x555 (= (+ ?x251 (* (- 1) ?x252) ?x1018 (* (- 1) ?x1019) (* (- 1) ?x1078) ?x1086) 0)))
 (let ((?x138 (* p00 b00)))
 (let ((?x181 (* (- 1) ?x137)))
 (let ((?x849 (* a!4 q!3)))
 (let (($x845 (= (+ (* a!4 s!0) (* (- 1) ?x829) (* (- 1) ?x133) (* r00 b00)) 0)))
 (let (($x1233 (and (= (+ (* p!5 s!0) (* (- 1) ?x37) ?x41 (* (- 1) ?x134)) 0) $x845 (= (+ ?x849 ?x181 ?x138 (* (- 1) (* p!5 b!2))) 0) $x555 $x735 $x1306)))
 (let (($x274 (exists ((p Int) (a Int) (q Int) (b Int) (r Int) (s Int) )(! (let ((?x226 (* r q00 a00)))
 (let ((?x232 (* (- 1) ?x226)))
 (let ((?x215 (* p s00 a00)))
 (let ((?x212 (* r p00 b00)))
 (let ((?x192 (* p r00 b00)))
 (let ((?x193 (* (- 1) ?x192)))
 (let ((?x66 (* a q00 r00)))
 (let ((?x63 (* a p00 s00)))
 (let ((?x201 (* (- 1) ?x63)))
 (let ((?x238 (+ ?x201 ?x66 ?x193 ?x212 ?x215 ?x232)))
 (let ((?x966 (* (- 1) (* p q r s s))))
 (let ((?x656 (* p a a a q b b b r)))
 (let ((?x479 (* p p p a q b b s s)))
 (let ((?x1472 (+ (* (- 1) (* p p p p a a a r r)) (* 2 (* p p p p a a b r r)) (* (- 1) (* p p p p a b b r r)) (* p p p a a a q r r) (* (- 2) (* p p p a a q b r r)) ?x479 ?x656 ?x966 (* 2 (* p p p p a a a r s)) (* p p p a q b b r r) (* (- 4) (* p p p p a a b r s)) (* 2 (* p p p p a b b r s)) (* (- 2) (* p p p a a a q r s)) (* 4 (* p p p a a q b r s)) (* (- 2) (* p p p a q b b r s)) (* (- 1) (* p p p p a a a s s)) (* 2 (* p p p p a a b s s)) (* (- 1) (* p p p p a b b s s)) (* p p p a a a q s s) (* (- 2) (* p p p a a q b s s)) (* p p a a a a a a r) (* (- 3) (* p p a a a a a b r)) (* 3 (* p p a a a a b b r)) (* (- 1) (* p p a a a b b b r)) (* (- 1) (* p a a a a a a q r)) (* 3 (* p a a a a a q b r)) (* (- 3) (* p a a a a q b b r)) (* p p r r r) (* (- 1) (* p q r r r)) (* (- 2) (* p p r r s)) (* 2 (* p q r r s)) (* p p r s s))))
 (let ((?x301 (* s q00 a00)))
 (let ((?x290 (* q s00 a00)))
 (let ((?x394 (* (- 1) ?x290)))
 (let ((?x256 (* q r00 b00)))
 (let ((?x255 (* s p00 b00)))
 (let ((?x359 (* (- 1) ?x255)))
 (let ((?x76 (* b p00 s00)))
 (let ((?x72 (* b q00 r00)))
 (let ((?x374 (* (- 1) ?x72)))
 (let ((?x981 (+ ?x479 (* (- 1) (* p p p q b b b s s)) (* (- 3) (* p p a q q b b s s)) (* 3 (* p p q q b b b s s)) (* 3 (* p a q q q b b s s)) (* (- 3) (* p q q q b b b s s)) (* (- 1) (* a q q q q b b s s)) (* q q q q b b b s s) ?x656 (* (- 3) (* p a a q b b b b r)) (* 3 (* p a q b b b b b r)) (* (- 1) (* p q b b b b b b r)) (* (- 1) (* a a a q q b b b r)) (* 3 (* a a q q b b b b r)) (* (- 3) (* a q q b b b b b r)) (* q q b b b b b b r) (* (- 1) (* p a a a q b b b s)) (* 3 (* p a a q b b b b s)) (* (- 3) (* p a q b b b b b s)) (* p q b b b b b b s) (* a a a q q b b b s) (* (- 3) (* a a q q b b b b s)) (* 3 (* a q q b b b b b s)) (* (- 1) (* q q b b b b b b s)) ?x966 (* q q r s s) (* p q s s s) (* (- 1) (* q q s s s)))))
 (let ((?x805 (* ?x981 (+ ?x201 ?x66 ?x374 ?x76 ?x193 ?x212 ?x215 ?x232 ?x359 ?x256 ?x394 ?x301))))
 (let (($x318 (= (+ ?x72 (* (- 1) ?x76) ?x255 (* (- 1) ?x256) ?x290 (* (- 1) ?x301)) 0)))
 (let (($x250 (= (+ ?x63 (* (- 1) ?x66) ?x192 (* (- 1) ?x212) (* (- 1) ?x215) ?x226) 0)))
 (let ((?x138 (* p00 b00)))
 (let ((?x137 (* q00 a00)))
 (let ((?x181 (* (- 1) ?x137)))
 (let (($x184 (= (+ (* a q) ?x181 ?x138 (* (- 1) (* p b))) 0)))
 (let ((?x151 (* r00 b00)))
 (let ((?x133 (* s00 a00)))
 (let ((?x140 (* (- 1) ?x133)))
 (let ((?x49 (* a s)))
 (let (($x166 (= (+ ?x49 (* (- 1) (* b r)) ?x140 ?x151) 0)))
 (let ((?x41 (* q00 r00)))
 (let ((?x37 (* p00 s00)))
 (let ((?x142 (* (- 1) ?x37)))
 (let ((?x33 (* p s)))
 (let (($x161 (= (+ ?x33 ?x142 ?x41 (* (- 1) (* q r))) 0)))
 (and $x161 $x166 $x184 $x250 $x318 (or (not (= ?x805 0)) (not (= (* ?x1472 ?x238) 0))))))))))))))))))))))))))))))))))))))))))))) :qid k!39))
 ))
 (let (($x1413 (exists ((p Int) (a Int) (q Int) (b Int) (r Int) (s Int) )(! (let ((?x952 (* a00 s00 p)))
 (let ((?x495 (* q00 r00 a)))
 (let ((?x65 (* b00 p00 r)))
 (let ((?x974 (+ (* (- 1) (* b00 r00 p)) (* (- 1) (* p00 s00 a)) ?x65 ?x495 ?x952 (* (- 1) (* a00 q00 r)))))
 (let ((?x774 (+ q (* (- 1) p))))
 (let ((?x690 (+ s (* (- 1) r))))
 (let ((?x1455 (+ b (* (- 1) a))))
 (let ((?x878 (+ (* ?x690 ?x690 ?x1455 ?x1455 ?x774 a p p p) (* ?x1455 ?x1455 ?x1455 ?x774 r a a a p) (* (- 1) (* ?x690 ?x690 ?x774 r p)))))
 (let ((?x395 (+ (* (- 1) (* b00 r00 (+ p (* (- 1) q)))) (* (- 1) (* p00 s00 (+ a (* (- 1) b)))) (* b00 p00 (+ r (* (- 1) s))) (* q00 r00 (+ a (* (- 1) b))) (* a00 s00 (+ p (* (- 1) q))) (* (- 1) (* a00 q00 (+ r (* (- 1) s)))))))
 (let ((?x1443 (* (- 1) (* (+ r (* (- 1) s)) (+ p (* (- 1) q)) s s q))))
 (let ((?x259 (* (- 1) q)))
 (let ((?x711 (+ p ?x259)))
 (let ((?x725 (+ a (* (- 1) b))))
 (let ((?x810 (+ r (* (- 1) s))))
 (let ((?x303 (+ (* ?x725 ?x711 ?x711 ?x711 s s b b q) (* ?x810 ?x725 ?x725 ?x725 ?x711 b b b q) ?x1443)))
 (let (($x534 (or (not (= (* ?x303 ?x395) 0)) (not (= (* ?x878 ?x974) 0)))))
 (let ((?x73 (* b00 p00 s)))
 (let ((?x799 (+ (* q00 r00 b) ?x73 (* (- 1) (* b00 r00 q)) (* (- 1) (* p00 s00 b)) (* a00 s00 q) (* (- 1) (* a00 q00 s)))))
 (let (($x1180 (= ?x799 0)))
 (let ((?x69 (* a00 q00 r)))
 (let ((?x1346 (* p00 s00 a)))
 (let ((?x1024 (* b00 r00 p)))
 (let (($x500 (= (+ ?x1024 ?x1346 (* (- 1) ?x65) (* (- 1) ?x495) (* (- 1) ?x952) ?x69) 0)))
 (let ((?x57 (* b00 p00)))
 (let ((?x1049 (* q a)))
 (let (($x889 (= (+ ?x1049 (* (- 1) (* a00 q00)) ?x57 (* (- 1) (* b p))) 0)))
 (let ((?x47 (* a00 s00)))
 (let ((?x391 (* r b)))
 (let (($x982 (= (+ ?x391 ?x47 (* (- 1) (* s a)) (* (- 1) (* b00 r00))) 0)))
 (let ((?x41 (* q00 r00)))
 (let ((?x590 (* (- 1) ?x41)))
 (let ((?x37 (* p00 s00)))
 (let ((?x409 (* r q)))
 (and (= (+ ?x409 (* (- 1) (* s p)) ?x37 ?x590) 0) $x982 $x889 $x500 $x1180 $x534)))))))))))))))))))))))))))))))))) :qid k!39))
 ))
 (let ((?x516 (lambda ((p Int) (a Int) (q Int) (b Int) (r Int) (s Int) )(let ((?x226 (* r q00 a00)))
 (let ((?x232 (* (- 1) ?x226)))
 (let ((?x215 (* p s00 a00)))
 (let ((?x212 (* r p00 b00)))
 (let ((?x192 (* p r00 b00)))
 (let ((?x193 (* (- 1) ?x192)))
 (let ((?x66 (* a q00 r00)))
 (let ((?x63 (* a p00 s00)))
 (let ((?x201 (* (- 1) ?x63)))
 (let ((?x238 (+ ?x201 ?x66 ?x193 ?x212 ?x215 ?x232)))
 (let ((?x966 (* (- 1) (* p q r s s))))
 (let ((?x656 (* p a a a q b b b r)))
 (let ((?x479 (* p p p a q b b s s)))
 (let ((?x1472 (+ (* (- 1) (* p p p p a a a r r)) (* 2 (* p p p p a a b r r)) (* (- 1) (* p p p p a b b r r)) (* p p p a a a q r r) (* (- 2) (* p p p a a q b r r)) ?x479 ?x656 ?x966 (* 2 (* p p p p a a a r s)) (* p p p a q b b r r) (* (- 4) (* p p p p a a b r s)) (* 2 (* p p p p a b b r s)) (* (- 2) (* p p p a a a q r s)) (* 4 (* p p p a a q b r s)) (* (- 2) (* p p p a q b b r s)) (* (- 1) (* p p p p a a a s s)) (* 2 (* p p p p a a b s s)) (* (- 1) (* p p p p a b b s s)) (* p p p a a a q s s) (* (- 2) (* p p p a a q b s s)) (* p p a a a a a a r) (* (- 3) (* p p a a a a a b r)) (* 3 (* p p a a a a b b r)) (* (- 1) (* p p a a a b b b r)) (* (- 1) (* p a a a a a a q r)) (* 3 (* p a a a a a q b r)) (* (- 3) (* p a a a a q b b r)) (* p p r r r) (* (- 1) (* p q r r r)) (* (- 2) (* p p r r s)) (* 2 (* p q r r s)) (* p p r s s))))
 (let ((?x301 (* s q00 a00)))
 (let ((?x290 (* q s00 a00)))
 (let ((?x394 (* (- 1) ?x290)))
 (let ((?x256 (* q r00 b00)))
 (let ((?x255 (* s p00 b00)))
 (let ((?x359 (* (- 1) ?x255)))
 (let ((?x76 (* b p00 s00)))
 (let ((?x72 (* b q00 r00)))
 (let ((?x374 (* (- 1) ?x72)))
 (let ((?x981 (+ ?x479 (* (- 1) (* p p p q b b b s s)) (* (- 3) (* p p a q q b b s s)) (* 3 (* p p q q b b b s s)) (* 3 (* p a q q q b b s s)) (* (- 3) (* p q q q b b b s s)) (* (- 1) (* a q q q q b b s s)) (* q q q q b b b s s) ?x656 (* (- 3) (* p a a q b b b b r)) (* 3 (* p a q b b b b b r)) (* (- 1) (* p q b b b b b b r)) (* (- 1) (* a a a q q b b b r)) (* 3 (* a a q q b b b b r)) (* (- 3) (* a q q b b b b b r)) (* q q b b b b b b r) (* (- 1) (* p a a a q b b b s)) (* 3 (* p a a q b b b b s)) (* (- 3) (* p a q b b b b b s)) (* p q b b b b b b s) (* a a a q q b b b s) (* (- 3) (* a a q q b b b b s)) (* 3 (* a q q b b b b b s)) (* (- 1) (* q q b b b b b b s)) ?x966 (* q q r s s) (* p q s s s) (* (- 1) (* q q s s s)))))
 (let ((?x805 (* ?x981 (+ ?x201 ?x66 ?x374 ?x76 ?x193 ?x212 ?x215 ?x232 ?x359 ?x256 ?x394 ?x301))))
 (let (($x318 (= (+ ?x72 (* (- 1) ?x76) ?x255 (* (- 1) ?x256) ?x290 (* (- 1) ?x301)) 0)))
 (let (($x250 (= (+ ?x63 (* (- 1) ?x66) ?x192 (* (- 1) ?x212) (* (- 1) ?x215) ?x226) 0)))
 (let ((?x138 (* p00 b00)))
 (let ((?x137 (* q00 a00)))
 (let ((?x181 (* (- 1) ?x137)))
 (let (($x184 (= (+ (* a q) ?x181 ?x138 (* (- 1) (* p b))) 0)))
 (let ((?x151 (* r00 b00)))
 (let ((?x133 (* s00 a00)))
 (let ((?x140 (* (- 1) ?x133)))
 (let ((?x49 (* a s)))
 (let (($x166 (= (+ ?x49 (* (- 1) (* b r)) ?x140 ?x151) 0)))
 (let ((?x41 (* q00 r00)))
 (let ((?x37 (* p00 s00)))
 (let ((?x142 (* (- 1) ?x37)))
 (let ((?x33 (* p s)))
 (let (($x161 (= (+ ?x33 ?x142 ?x41 (* (- 1) (* q r))) 0)))
 (let (($x1584 (and $x161 $x166 $x184 $x250 $x318 (or (not (= ?x805 0)) (not (= (* ?x1472 ?x238) 0))))))
 (let ((?x952 (* a00 s00 p)))
 (let ((?x495 (* q00 r00 a)))
 (let ((?x65 (* b00 p00 r)))
 (let ((?x974 (+ (* (- 1) (* b00 r00 p)) (* (- 1) (* p00 s00 a)) ?x65 ?x495 ?x952 (* (- 1) (* a00 q00 r)))))
 (let ((?x774 (+ q (* (- 1) p))))
 (let ((?x690 (+ s (* (- 1) r))))
 (let ((?x1455 (+ b (* (- 1) a))))
 (let ((?x878 (+ (* ?x690 ?x690 ?x1455 ?x1455 ?x774 a p p p) (* ?x1455 ?x1455 ?x1455 ?x774 r a a a p) (* (- 1) (* ?x690 ?x690 ?x774 r p)))))
 (let ((?x395 (+ (* (- 1) (* b00 r00 (+ p (* (- 1) q)))) (* (- 1) (* p00 s00 (+ a (* (- 1) b)))) (* b00 p00 (+ r (* (- 1) s))) (* q00 r00 (+ a (* (- 1) b))) (* a00 s00 (+ p (* (- 1) q))) (* (- 1) (* a00 q00 (+ r (* (- 1) s)))))))
 (let ((?x1443 (* (- 1) (* (+ r (* (- 1) s)) (+ p (* (- 1) q)) s s q))))
 (let ((?x259 (* (- 1) q)))
 (let ((?x711 (+ p ?x259)))
 (let ((?x725 (+ a (* (- 1) b))))
 (let ((?x810 (+ r (* (- 1) s))))
 (let ((?x303 (+ (* ?x725 ?x711 ?x711 ?x711 s s b b q) (* ?x810 ?x725 ?x725 ?x725 ?x711 b b b q) ?x1443)))
 (let (($x534 (or (not (= (* ?x303 ?x395) 0)) (not (= (* ?x878 ?x974) 0)))))
 (let ((?x73 (* b00 p00 s)))
 (let ((?x799 (+ (* q00 r00 b) ?x73 (* (- 1) (* b00 r00 q)) (* (- 1) (* p00 s00 b)) (* a00 s00 q) (* (- 1) (* a00 q00 s)))))
 (let (($x1180 (= ?x799 0)))
 (let ((?x69 (* a00 q00 r)))
 (let ((?x1346 (* p00 s00 a)))
 (let ((?x1024 (* b00 r00 p)))
 (let (($x500 (= (+ ?x1024 ?x1346 (* (- 1) ?x65) (* (- 1) ?x495) (* (- 1) ?x952) ?x69) 0)))
 (let ((?x57 (* b00 p00)))
 (let ((?x1049 (* q a)))
 (let (($x889 (= (+ ?x1049 (* (- 1) (* a00 q00)) ?x57 (* (- 1) (* b p))) 0)))
 (let ((?x47 (* a00 s00)))
 (let ((?x391 (* r b)))
 (let (($x982 (= (+ ?x391 ?x47 (* (- 1) (* s a)) (* (- 1) (* b00 r00))) 0)))
 (let (($x1023 (= (+ (* r q) (* (- 1) (* s p)) ?x37 (* (- 1) ?x41)) 0)))
 (let (($x1417 (and $x1023 $x982 $x889 $x500 $x1180 $x534)))
 (rewrite (= $x1417 $x1584))))))))))))))))))))))))))))))))))))))))))))))))))))))))))))))))))))))))))))
 ))
 (let (($x1056 (exists ((p Int) (a Int) (q Int) (b Int) (r Int) (s Int) )(! (let ((?x952 (* a00 s00 p)))
 (let ((?x495 (* q00 r00 a)))
 (let ((?x65 (* b00 p00 r)))
 (let ((?x974 (+ (* (- 1) (* b00 r00 p)) (* (- 1) (* p00 s00 a)) ?x65 ?x495 ?x952 (* (- 1) (* a00 q00 r)))))
 (let ((?x774 (+ q (* (- 1) p))))
 (let ((?x690 (+ s (* (- 1) r))))
 (let ((?x1455 (+ b (* (- 1) a))))
 (let ((?x878 (+ (* ?x690 ?x690 ?x1455 ?x1455 ?x774 a p p p) (* ?x1455 ?x1455 ?x1455 ?x774 r a a a p) (* (- 1) (* ?x690 ?x690 ?x774 r p)))))
 (let ((?x395 (+ (* (- 1) (* b00 r00 (+ p (* (- 1) q)))) (* (- 1) (* p00 s00 (+ a (* (- 1) b)))) (* b00 p00 (+ r (* (- 1) s))) (* q00 r00 (+ a (* (- 1) b))) (* a00 s00 (+ p (* (- 1) q))) (* (- 1) (* a00 q00 (+ r (* (- 1) s)))))))
 (let ((?x1443 (* (- 1) (* (+ r (* (- 1) s)) (+ p (* (- 1) q)) s s q))))
 (let ((?x259 (* (- 1) q)))
 (let ((?x711 (+ p ?x259)))
 (let ((?x725 (+ a (* (- 1) b))))
 (let ((?x810 (+ r (* (- 1) s))))
 (let ((?x303 (+ (* ?x725 ?x711 ?x711 ?x711 s s b b q) (* ?x810 ?x725 ?x725 ?x725 ?x711 b b b q) ?x1443)))
 (let (($x534 (or (not (= (* ?x303 ?x395) 0)) (not (= (* ?x878 ?x974) 0)))))
 (let ((?x73 (* b00 p00 s)))
 (let ((?x799 (+ (* q00 r00 b) ?x73 (* (- 1) (* b00 r00 q)) (* (- 1) (* p00 s00 b)) (* a00 s00 q) (* (- 1) (* a00 q00 s)))))
 (let (($x1180 (= ?x799 0)))
 (let ((?x59 (* b p)))
 (let ((?x55 (* a00 q00)))
 (let (($x130 (= (+ (* (- 1) (* q a)) ?x55 (* (- 1) (* b00 p00)) ?x59) 0)))
 (let ((?x51 (* b00 r00)))
 (let ((?x240 (* s a)))
 (let (($x1418 (= (+ (* (- 1) (* r b)) (* (- 1) (* a00 s00)) ?x240 ?x51) 0)))
 (let ((?x41 (* q00 r00)))
 (let ((?x37 (* p00 s00)))
 (let ((?x142 (* (- 1) ?x37)))
 (let ((?x811 (* s p)))
 (and (= (+ (* (- 1) (* r q)) ?x811 ?x142 ?x41) 0) $x1418 $x130 (= ?x974 0) $x1180 $x534)))))))))))))))))))))))))))))) :qid k!39))
 ))
 (let ((?x1386 (lambda ((p Int) (a Int) (q Int) (b Int) (r Int) (s Int) )(let ((?x952 (* a00 s00 p)))
 (let ((?x495 (* q00 r00 a)))
 (let ((?x65 (* b00 p00 r)))
 (let ((?x974 (+ (* (- 1) (* b00 r00 p)) (* (- 1) (* p00 s00 a)) ?x65 ?x495 ?x952 (* (- 1) (* a00 q00 r)))))
 (let ((?x774 (+ q (* (- 1) p))))
 (let ((?x690 (+ s (* (- 1) r))))
 (let ((?x1455 (+ b (* (- 1) a))))
 (let ((?x878 (+ (* ?x690 ?x690 ?x1455 ?x1455 ?x774 a p p p) (* ?x1455 ?x1455 ?x1455 ?x774 r a a a p) (* (- 1) (* ?x690 ?x690 ?x774 r p)))))
 (let ((?x395 (+ (* (- 1) (* b00 r00 (+ p (* (- 1) q)))) (* (- 1) (* p00 s00 (+ a (* (- 1) b)))) (* b00 p00 (+ r (* (- 1) s))) (* q00 r00 (+ a (* (- 1) b))) (* a00 s00 (+ p (* (- 1) q))) (* (- 1) (* a00 q00 (+ r (* (- 1) s)))))))
 (let ((?x1443 (* (- 1) (* (+ r (* (- 1) s)) (+ p (* (- 1) q)) s s q))))
 (let ((?x259 (* (- 1) q)))
 (let ((?x711 (+ p ?x259)))
 (let ((?x725 (+ a (* (- 1) b))))
 (let ((?x810 (+ r (* (- 1) s))))
 (let ((?x303 (+ (* ?x725 ?x711 ?x711 ?x711 s s b b q) (* ?x810 ?x725 ?x725 ?x725 ?x711 b b b q) ?x1443)))
 (let (($x534 (or (not (= (* ?x303 ?x395) 0)) (not (= (* ?x878 ?x974) 0)))))
 (let ((?x73 (* b00 p00 s)))
 (let ((?x799 (+ (* q00 r00 b) ?x73 (* (- 1) (* b00 r00 q)) (* (- 1) (* p00 s00 b)) (* a00 s00 q) (* (- 1) (* a00 q00 s)))))
 (let (($x1180 (= ?x799 0)))
 (let ((?x69 (* a00 q00 r)))
 (let ((?x1346 (* p00 s00 a)))
 (let ((?x1024 (* b00 r00 p)))
 (let (($x500 (= (+ ?x1024 ?x1346 (* (- 1) ?x65) (* (- 1) ?x495) (* (- 1) ?x952) ?x69) 0)))
 (let ((?x57 (* b00 p00)))
 (let ((?x1049 (* q a)))
 (let (($x889 (= (+ ?x1049 (* (- 1) (* a00 q00)) ?x57 (* (- 1) (* b p))) 0)))
 (let ((?x47 (* a00 s00)))
 (let ((?x391 (* r b)))
 (let (($x982 (= (+ ?x391 ?x47 (* (- 1) (* s a)) (* (- 1) (* b00 r00))) 0)))
 (let ((?x41 (* q00 r00)))
 (let ((?x590 (* (- 1) ?x41)))
 (let ((?x37 (* p00 s00)))
 (let ((?x409 (* r q)))
 (let (($x1417 (and (= (+ ?x409 (* (- 1) (* s p)) ?x37 ?x590) 0) $x982 $x889 $x500 $x1180 $x534)))
 (let (($x130 (= (+ (* (- 1) ?x1049) (* a00 q00) (* (- 1) ?x57) (* b p)) 0)))
 (let (($x1418 (= (+ (* (- 1) ?x391) (* (- 1) ?x47) (* s a) (* b00 r00)) 0)))
 (let (($x1162 (and (= (+ (* (- 1) ?x409) (* s p) (* (- 1) ?x37) ?x41) 0) $x1418 $x130 (= ?x974 0) $x1180 $x534)))
 (rewrite (= $x1162 $x1417))))))))))))))))))))))))))))))))))))))))
 ))
 (let (($x117 (exists ((p Int) (a Int) (q Int) (b Int) (r Int) (s Int) )(! (let ((?x105 (- q p)))
 (let ((?x104 (- b a)))
 (let ((?x109 (+ (* a ?x104 ?x104 p p p ?x105 (- s r) (- s r)) (* a a a ?x104 ?x104 ?x104 p ?x105 r))))
 (let ((?x69 (* a00 q00 r)))
 (let ((?x66 (* a q00 r00)))
 (let ((?x65 (* b00 p00 r)))
 (let ((?x68 (+ (- (* (- 1) b00 p r00) (* a p00 s00)) ?x65 ?x66 (* a00 p s00))))
 (let ((?x70 (- ?x68 ?x69)))
 (let (($x113 (= (* ?x70 (- ?x109 (* p ?x105 r (- s r) (- s r)))) 0)))
 (let ((?x89 (- r s)))
 (let ((?x84 (- p q)))
 (let ((?x86 (- a b)))
 (let ((?x98 (+ (* ?x86 b b ?x84 ?x84 ?x84 q s s) (* ?x86 ?x86 ?x86 b b b ?x84 q ?x89))))
 (let ((?x93 (+ (- (* (- 1) b00 ?x84 r00) (* ?x86 p00 s00)) (* b00 p00 ?x89) (* ?x86 q00 r00) (* a00 ?x84 s00))))
 (let ((?x101 (* (- ?x93 (* a00 q00 ?x89)) (- ?x98 (* ?x84 q ?x89 s s)))))
 (let ((?x81 (* a00 q00 s)))
 (let ((?x76 (* b p00 s00)))
 (let ((?x77 (- (+ (* b q00 r00) (* b00 p00 s)) (* b00 q r00))))
 (let ((?x59 (* b p)))
 (let ((?x60 (+ (- (+ (* (- 1) a q) (* a00 q00)) (* b00 p00)) ?x59)))
 (let ((?x51 (* b00 r00)))
 (let ((?x49 (* a s)))
 (let (($x53 (= (+ (- (* (- 1) b r) (* a00 s00)) ?x49 ?x51) 0)))
 (let ((?x41 (* q00 r00)))
 (let ((?x42 (+ (- (+ (* (- 1) q r) (* p s)) (* p00 s00)) ?x41)))
 (and (= ?x42 0) $x53 (= ?x60 0) (= ?x70 0) (= (- (+ (- ?x77 ?x76) (* a00 q s00)) ?x81) 0) (or (not (= ?x101 0)) (not $x113)))))))))))))))))))))))))))) :qid k!39))
 ))
 (let ((?x680 (lambda ((p Int) (a Int) (q Int) (b Int) (r Int) (s Int) )(let ((?x952 (* a00 s00 p)))
 (let ((?x495 (* q00 r00 a)))
 (let ((?x65 (* b00 p00 r)))
 (let ((?x974 (+ (* (- 1) (* b00 r00 p)) (* (- 1) (* p00 s00 a)) ?x65 ?x495 ?x952 (* (- 1) (* a00 q00 r)))))
 (let ((?x774 (+ q (* (- 1) p))))
 (let ((?x690 (+ s (* (- 1) r))))
 (let ((?x1455 (+ b (* (- 1) a))))
 (let ((?x878 (+ (* ?x690 ?x690 ?x1455 ?x1455 ?x774 a p p p) (* ?x1455 ?x1455 ?x1455 ?x774 r a a a p) (* (- 1) (* ?x690 ?x690 ?x774 r p)))))
 (let ((?x395 (+ (* (- 1) (* b00 r00 (+ p (* (- 1) q)))) (* (- 1) (* p00 s00 (+ a (* (- 1) b)))) (* b00 p00 (+ r (* (- 1) s))) (* q00 r00 (+ a (* (- 1) b))) (* a00 s00 (+ p (* (- 1) q))) (* (- 1) (* a00 q00 (+ r (* (- 1) s)))))))
 (let ((?x1443 (* (- 1) (* (+ r (* (- 1) s)) (+ p (* (- 1) q)) s s q))))
 (let ((?x259 (* (- 1) q)))
 (let ((?x711 (+ p ?x259)))
 (let ((?x725 (+ a (* (- 1) b))))
 (let ((?x810 (+ r (* (- 1) s))))
 (let ((?x303 (+ (* ?x725 ?x711 ?x711 ?x711 s s b b q) (* ?x810 ?x725 ?x725 ?x725 ?x711 b b b q) ?x1443)))
 (let (($x534 (or (not (= (* ?x303 ?x395) 0)) (not (= (* ?x878 ?x974) 0)))))
 (let ((?x73 (* b00 p00 s)))
 (let ((?x799 (+ (* q00 r00 b) ?x73 (* (- 1) (* b00 r00 q)) (* (- 1) (* p00 s00 b)) (* a00 s00 q) (* (- 1) (* a00 q00 s)))))
 (let (($x1180 (= ?x799 0)))
 (let ((?x59 (* b p)))
 (let ((?x55 (* a00 q00)))
 (let (($x130 (= (+ (* (- 1) (* q a)) ?x55 (* (- 1) (* b00 p00)) ?x59) 0)))
 (let ((?x51 (* b00 r00)))
 (let ((?x240 (* s a)))
 (let (($x1418 (= (+ (* (- 1) (* r b)) (* (- 1) (* a00 s00)) ?x240 ?x51) 0)))
 (let ((?x41 (* q00 r00)))
 (let ((?x37 (* p00 s00)))
 (let ((?x142 (* (- 1) ?x37)))
 (let ((?x811 (* s p)))
 (let (($x1162 (and (= (+ (* (- 1) (* r q)) ?x811 ?x142 ?x41) 0) $x1418 $x130 (= ?x974 0) $x1180 $x534)))
 (let ((?x105 (- q p)))
 (let ((?x104 (- b a)))
 (let ((?x109 (+ (* a ?x104 ?x104 p p p ?x105 (- s r) (- s r)) (* a a a ?x104 ?x104 ?x104 p ?x105 r))))
 (let ((?x69 (* a00 q00 r)))
 (let ((?x66 (* a q00 r00)))
 (let ((?x68 (+ (- (* (- 1) b00 p r00) (* a p00 s00)) ?x65 ?x66 (* a00 p s00))))
 (let ((?x70 (- ?x68 ?x69)))
 (let (($x113 (= (* ?x70 (- ?x109 (* p ?x105 r (- s r) (- s r)))) 0)))
 (let ((?x89 (- r s)))
 (let ((?x84 (- p q)))
 (let ((?x86 (- a b)))
 (let ((?x98 (+ (* ?x86 b b ?x84 ?x84 ?x84 q s s) (* ?x86 ?x86 ?x86 b b b ?x84 q ?x89))))
 (let ((?x93 (+ (- (* (- 1) b00 ?x84 r00) (* ?x86 p00 s00)) (* b00 p00 ?x89) (* ?x86 q00 r00) (* a00 ?x84 s00))))
 (let ((?x101 (* (- ?x93 (* a00 q00 ?x89)) (- ?x98 (* ?x84 q ?x89 s s)))))
 (let ((?x81 (* a00 q00 s)))
 (let ((?x76 (* b p00 s00)))
 (let ((?x80 (+ (- (- (+ (* b q00 r00) ?x73) (* b00 q r00)) ?x76) (* a00 q s00))))
 (let (($x61 (= (+ (- (+ (* (- 1) a q) ?x55) (* b00 p00)) ?x59) 0)))
 (let (($x53 (= (+ (- (* (- 1) b r) (* a00 s00)) (* a s) ?x51) 0)))
 (let (($x44 (= (+ (- (+ (* (- 1) q r) (* p s)) ?x37) ?x41) 0)))
 (let (($x116 (and $x44 $x53 $x61 (= ?x70 0) (= (- ?x80 ?x81) 0) (or (not (= ?x101 0)) (not $x113)))))
 (rewrite (= $x116 $x1162))))))))))))))))))))))))))))))))))))))))))))))))))))))
 ))
 (let ((@x118 (asserted $x117)))
 (let ((@x950 (mp (mp @x118 (quant-intro (proof-bind ?x680) (= $x117 $x1056)) $x1056) (rewrite (= $x1056 $x1056)) $x1056)))
 (let ((@x793 (mp (mp @x950 (quant-intro (proof-bind ?x1386) (= $x1056 $x1413)) $x1413) (quant-intro (proof-bind ?x516) (= $x1413 $x274)) $x274)))
 (let ((@x564 (mp (mp~ @x793 (sk (~ $x274 $x1233)) $x1233) (rewrite (= $x1233 $x600)) $x600)))
 (let ((@x174 (and-elim @x564 $x209)))
 (let ((@x132 (unit-resolution ((_ th-lemma arith triangle-eq) (or (not $x209) $x857)) @x174 $x857)))
 (let (($x245 (>= ?x1282 0)))
 (let ((@x172 (and-elim @x564 $x171)))
 (let ((@x1271 (unit-resolution ((_ th-lemma arith triangle-eq) (or (not $x171) $x245)) @x172 $x245)))
 (let (($x854 (<= ?x743 0)))
 (let ((@x923 (unit-resolution ((_ th-lemma arith triangle-eq) (or (not $x209) $x854)) @x174 $x854)))
 (let (($x946 (<= ?x1282 0)))
 (let ((@x452 (unit-resolution ((_ th-lemma arith triangle-eq) (or (not $x171) $x946)) @x172 $x946)))
 (let (($x706 (not (<= ?x893 0))))
 (let (($x1229 (>= ?x569 0)))
 (let (($x123 (<= ?x569 0)))
 (let ((@x207 (unit-resolution ((_ th-lemma arith triangle-eq) (or $x469 (not $x123) (not $x1229))) (lemma ((_ th-lemma arith farkas 1 1 1) (hypothesis (not $x123)) @x452 @x1271 false) $x123) (lemma ((_ th-lemma arith farkas 1 1 1) (hypothesis (not $x1229)) @x452 @x1271 false) $x1229) $x469)))
 (let (($x157 (>= ?x893 0)))
 (let ((@x1348 (lemma ((_ th-lemma arith farkas 1 1 1 1 1) (hypothesis (not $x157)) @x452 @x923 @x1271 @x132 false) $x157)))
 (let ((@x1369 (unit-resolution ((_ th-lemma arith triangle-eq) (or $x644 $x706 (not $x157))) @x1348 (unit-resolution (and-elim @x564 $x561) @x207 $x894) $x706)))
 ((_ th-lemma arith farkas 1 1 1 1 1) @x1369 @x452 @x923 @x1271 @x132 false))))))))))))))))))))))))))))))))))))))))))))))))))))))))))))))))))))))))))))))))))))))))))))))))))))))))))))))))

(:added-eqs                 14
 :arith-assert-diseq        3
 :arith-assert-lower        23
 :arith-assert-upper        22
 :arith-conflicts           4
 :arith-eq-adapter          11
 :arith-fixed-eqs           10
 :arith-grobner             4
 :arith-max-min             784
 :arith-nonlinear-horner    32
 :arith-num-rows            9
 :arith-pivots              5
 :arith-pseudo-nonlinear    8
 :arith-row-summations      3
 :arith-tableau-max-columns 111
 :arith-tableau-max-rows    9
 :conflicts                 4
 :decisions                 7
 :del-clause                27
 :final-checks              4
 :max-memory                174.91
 :memory                    3.27
 :mk-bool-var               39
 :mk-clause                 40
 :num-allocs                71919486900187.00
 :num-checks                1
 :propagations              19
 :rlimit-count              152639417
 :time                      168.35
 :total-time                168.08)
